certificates/rado_a15_c71_N48.cnf
c Rad2 upper bound instance: x1 + 15*x2 - x3 = 71, interval [1,48]
p cnf 48 306
1 5 0
-1 -5 0
1 6 20 0
-1 -6 -20 0
1 7 35 0
-1 -7 -35 0
2 5 6 0
-2 -5 -6 0
2 6 21 0
-2 -6 -21 0
2 7 36 0
-2 -7 -36 0
3 5 7 0
-3 -5 -7 0
3 6 22 0
-3 -6 -22 0
3 7 37 0
-3 -7 -37 0
4 5 8 0
-4 -5 -8 0
4 6 23 0
-4 -6 -23 0
4 7 38 0
-4 -7 -38 0
5 9 0
-5 -9 0
5 6 24 0
-5 -6 -24 0
5 7 39 0
-5 -7 -39 0
5 6 10 0
-5 -6 -10 0
6 25 0
-6 -25 0
6 7 40 0
-6 -7 -40 0
5 7 11 0
-5 -7 -11 0
6 7 26 0
-6 -7 -26 0
7 41 0
-7 -41 0
5 8 12 0
-5 -8 -12 0
6 8 27 0
-6 -8 -27 0
7 8 42 0
-7 -8 -42 0
5 9 13 0
-5 -9 -13 0
6 9 28 0
-6 -9 -28 0
7 9 43 0
-7 -9 -43 0
5 10 14 0
-5 -10 -14 0
6 10 29 0
-6 -10 -29 0
7 10 44 0
-7 -10 -44 0
5 11 15 0
-5 -11 -15 0
6 11 30 0
-6 -11 -30 0
7 11 45 0
-7 -11 -45 0
1 4 12 0
-1 -4 -12 0
5 12 16 0
-5 -12 -16 0
6 12 31 0
-6 -12 -31 0
7 12 46 0
-7 -12 -46 0
2 4 13 0
-2 -4 -13 0
5 13 17 0
-5 -13 -17 0
6 13 32 0
-6 -13 -32 0
7 13 47 0
-7 -13 -47 0
3 4 14 0
-3 -4 -14 0
5 14 18 0
-5 -14 -18 0
6 14 33 0
-6 -14 -33 0
7 14 48 0
-7 -14 -48 0
4 15 0
-4 -15 0
5 15 19 0
-5 -15 -19 0
6 15 34 0
-6 -15 -34 0
4 5 16 0
-4 -5 -16 0
5 16 20 0
-5 -16 -20 0
6 16 35 0
-6 -16 -35 0
4 6 17 0
-4 -6 -17 0
5 17 21 0
-5 -17 -21 0
6 17 36 0
-6 -17 -36 0
4 7 18 0
-4 -7 -18 0
5 18 22 0
-5 -18 -22 0
6 18 37 0
-6 -18 -37 0
4 8 19 0
-4 -8 -19 0
5 19 23 0
-5 -19 -23 0
6 19 38 0
-6 -19 -38 0
4 9 20 0
-4 -9 -20 0
5 20 24 0
-5 -20 -24 0
6 20 39 0
-6 -20 -39 0
4 10 21 0
-4 -10 -21 0
5 21 25 0
-5 -21 -25 0
6 21 40 0
-6 -21 -40 0
4 11 22 0
-4 -11 -22 0
5 22 26 0
-5 -22 -26 0
6 22 41 0
-6 -22 -41 0
4 12 23 0
-4 -12 -23 0
5 23 27 0
-5 -23 -27 0
6 23 42 0
-6 -23 -42 0
4 13 24 0
-4 -13 -24 0
5 24 28 0
-5 -24 -28 0
6 24 43 0
-6 -24 -43 0
4 14 25 0
-4 -14 -25 0
5 25 29 0
-5 -25 -29 0
6 25 44 0
-6 -25 -44 0
4 15 26 0
-4 -15 -26 0
5 26 30 0
-5 -26 -30 0
6 26 45 0
-6 -26 -45 0
1 3 27 0
-1 -3 -27 0
4 16 27 0
-4 -16 -27 0
5 27 31 0
-5 -27 -31 0
6 27 46 0
-6 -27 -46 0
2 3 28 0
-2 -3 -28 0
4 17 28 0
-4 -17 -28 0
5 28 32 0
-5 -28 -32 0
6 28 47 0
-6 -28 -47 0
3 29 0
-3 -29 0
4 18 29 0
-4 -18 -29 0
5 29 33 0
-5 -29 -33 0
6 29 48 0
-6 -29 -48 0
3 4 30 0
-3 -4 -30 0
4 19 30 0
-4 -19 -30 0
5 30 34 0
-5 -30 -34 0
3 5 31 0
-3 -5 -31 0
4 20 31 0
-4 -20 -31 0
5 31 35 0
-5 -31 -35 0
3 6 32 0
-3 -6 -32 0
4 21 32 0
-4 -21 -32 0
5 32 36 0
-5 -32 -36 0
3 7 33 0
-3 -7 -33 0
4 22 33 0
-4 -22 -33 0
5 33 37 0
-5 -33 -37 0
3 8 34 0
-3 -8 -34 0
4 23 34 0
-4 -23 -34 0
5 34 38 0
-5 -34 -38 0
3 9 35 0
-3 -9 -35 0
4 24 35 0
-4 -24 -35 0
5 35 39 0
-5 -35 -39 0
3 10 36 0
-3 -10 -36 0
4 25 36 0
-4 -25 -36 0
5 36 40 0
-5 -36 -40 0
3 11 37 0
-3 -11 -37 0
4 26 37 0
-4 -26 -37 0
5 37 41 0
-5 -37 -41 0
3 12 38 0
-3 -12 -38 0
4 27 38 0
-4 -27 -38 0
5 38 42 0
-5 -38 -42 0
3 13 39 0
-3 -13 -39 0
4 28 39 0
-4 -28 -39 0
5 39 43 0
-5 -39 -43 0
3 14 40 0
-3 -14 -40 0
4 29 40 0
-4 -29 -40 0
5 40 44 0
-5 -40 -44 0
3 15 41 0
-3 -15 -41 0
4 30 41 0
-4 -30 -41 0
5 41 45 0
-5 -41 -45 0
1 2 42 0
-1 -2 -42 0
3 16 42 0
-3 -16 -42 0
4 31 42 0
-4 -31 -42 0
5 42 46 0
-5 -42 -46 0
2 43 0
-2 -43 0
3 17 43 0
-3 -17 -43 0
4 32 43 0
-4 -32 -43 0
5 43 47 0
-5 -43 -47 0
2 3 44 0
-2 -3 -44 0
3 18 44 0
-3 -18 -44 0
4 33 44 0
-4 -33 -44 0
5 44 48 0
-5 -44 -48 0
2 4 45 0
-2 -4 -45 0
3 19 45 0
-3 -19 -45 0
4 34 45 0
-4 -34 -45 0
2 5 46 0
-2 -5 -46 0
3 20 46 0
-3 -20 -46 0
4 35 46 0
-4 -35 -46 0
2 6 47 0
-2 -6 -47 0
3 21 47 0
-3 -21 -47 0
4 36 47 0
-4 -36 -47 0
2 7 48 0
-2 -7 -48 0
3 22 48 0
-3 -22 -48 0
4 37 48 0
-4 -37 -48 0
