certificates/rado_a15_c71_N48.drat
-43 5 0
-44 -48 0
d -44 -5 -48 0
-2 -45 -46 -48 0
-43 -47 0
d -43 -5 -47 0
5 6 7 -2 0
-47 -48 0
43 -48 0
-48 0
-43 0
2 0
-5 0
1 0
9 0
39 0
47 0
44 0
-42 0
-6 0
-3 0
46 0
38 0
23 0
16 0
24 0
10 0
25 0
29 0
7 0
22 0
31 0
32 0
17 0
-12 0
-4 0
0
